db/data/275855823147128042116737521733918953.z3.out
-------------------
2500.116189896
